import sys
sys.path.append('.')
from BFCI import CASCI

molecule mol {
    0 1
    O
    H 1 0.96
    H 1 0.96 2 104.5
    symmetry c1
}

set {
    BASIS         sto-3g
    REFERENCE     RHF
    SCF_TYPE      PK
    SOSCF         True
    E_CONVERGENCE 12
    MAXITER       100
    MAX_ATTEMPTS  10
    FCI           True
}

CASCI('full', rot = True, rot_method = 1, CC='SD')

print(energy('ccsd'))
print(energy('bccd'))
