import sys
sys.path.append('.')
from BFCI import CASCI

molecule mol {
    0 1
    O
    H 1 R
    H 1 R 2 104.5
    R = 1.0
    symmetry c1
}

set {
    BASIS         cc-pvdz
    REFERENCE     RHF
    SCF_TYPE      PK
    E_CONVERGENCE 12
    MAXITER       100
    MAX_ATTEMPTS  10
    FCI           True
}

CASCI('oaaaaaaaauuuuuuuuuuuuuuu', rot = True, rot_method = 1)

print(energy('ccsd'))
