from CCSD import CCSD

molecule mol {
    0 2
    O
    H 1 0.96
    symmetry c1
}

set {
    BASIS         cc-pvtz
    REFERENCE     UHF
    SCF_TYPE      PK
    E_CONVERGENCE 12
}

e, wfn = energy('scf', return_wfn=True)

X = CCSD(wfn, CC_CONV = 8, E_CONV = 10)
e = energy('ccsd')
print('Psi4 Energy: {:<15.10f}'.format(e))
