import sys
sys.path.append('.')
from UCCSD import UCCSD

molecule mol {
    0 1
    C
    H 1 0.96
    H 1 0.96 2 103.0
    symmetry c1
}

set {
    BASIS         cc-pvdz
    REFERENCE     UHF
    SCF_TYPE      PK
    E_CONVERGENCE 12
}

e, wfn = energy('scf', return_wfn=True)

X = UCCSD(wfn, CC_MAXITER=100, CC_CONV = 8, E_CONV = 12)
e = energy('ccsd')
print('Psi4 Energy: {:<15.10f}'.format(e))
