import sys
sys.path.append('.')
from CCSD import CCSD

molecule mol {
    0 1
    O
    O 1 1.27
    O 1 1.27 2 116
    symmetry c1
}

set {
    BASIS         6-31g
    REFERENCE     UHF
    SCF_TYPE      PK
    E_CONVERGENCE 12
}

e, wfn = energy('scf', return_wfn=True)

X = CCSD(wfn, CC_MAXITER = 200, CC_CONV = 8, E_CONV = 12)
e = energy('ccsd')
print('Psi4 Energy: {:<15.10f}'.format(e))
