import sys
sys.path.append('../../../3_CCSDT')
sys.path.append('../../../2_CCSD')
from RCCSDT import RCCSDT
from RCCSD import RCCSD

molecule mol {
  0 1
  N       -3.8452193033      2.7754820524     -0.0160543962
  H       -2.8021108858      2.7866454563      0.0011715583
  H       -4.1832422319      3.7619652723     -0.0490374569
  H       -4.1832466832      2.3424694447      0.8709264201
  symmetry c1
}


set {
    BASIS         cc-pvdz
    REFERENCE     RHF
    SCF_TYPE      PK
    E_CONVERGENCE 12
    R_CONVERGENCE 12
}

ehf, wfn = energy('scf', return_wfn=True)
e = energy('ccsd')

X = RCCSD(wfn, E_CONV=12, CC_CONV = 12, CC_MAXITER=100)

print(e)

