import sys
sys.path.append('.')
from RCCD import RCCD
from UCCD import UCCD

molecule mol {
    0 1
    O
    H 1 0.96
    H 1 0.96 2 104.5
    symmetry c1
}

set {
    BASIS         cc-pvdz
    REFERENCE     RHF
    SCF_TYPE      PK
    E_CONVERGENCE 12
}

e, wfn = energy('scf', return_wfn=True)

X = RCCD(wfn, CC_CONV = 8, E_CONV = 12)

print(-76.2393954570)
