import sys
sys.path.append('.')
from RCCSD import RCCSD

molecule mol {
    0 1
    O
    H 1 0.96
    H 1 0.96 2 104.5
    symmetry c1
}

set {
    BASIS         cc-pvdz
    REFERENCE     RHF
    SCF_TYPE      PK
    E_CONVERGENCE 12
}

e, wfn = energy('scf', return_wfn=True)

X = RCCSD(wfn, CC_CONV = 8, E_CONV = 12)
e = energy('ccsd')
print('Psi4 Energy: {:<15.10f}'.format(e))
