import sys
sys.path.append('../Modules/')
from CASCCSD import CASCCSD

molecule mol {
    unit bohr
    0 1
    N 
    N 1 2.074
    symmetry c1
}

set {
    BASIS         cc-pvdz
    REFERENCE     RHF
    SCF_TYPE      PK
    SOSCF         True
    E_CONVERGENCE 12
    MAXITER       100
    MAX_ATTEMPTS  10
    NUM_DETS_PRINT 10000
    FCI True
}

set FROZEN_DOCC = [5]
set ACTIVE = [3]

e, wfn = energy('detci', return_wfn=True)
X = CASCCSD(wfn)
