molecule mol {
    unit bohr
    0 1
    H
    H 1 a
    H 1 a 2 90.0 
    H 2 a 1 90.0 3 0.0
    symmetry c1

    a = 2.0
}

set {
    BASIS         cc-pvtz
    REFERENCE     RHF
    SCF_TYPE      PK
    SOSCF         True
    E_CONVERGENCE 12
    MAXITER       100
    MAX_ATTEMPTS  10
    NUM_DETS_PRINT 200000
    FCI True
}

e, wfn = energy('detci', return_wfn=True)
