import sys
sys.path.append('.')
from CCSD import CCSD

molecule mol {
    0 3
    O
    O 1 1.2
    symmetry c1
}

set {
    BASIS         cc-pvdz
    REFERENCE     UHF
    SCF_TYPE      PK
    E_CONVERGENCE 12
}

e, wfn = energy('scf', return_wfn=True)

X = CCSD(wfn, CC_CONV = 8, E_CONV = 12)
e = energy('ccsd')
print('Psi4 Energy: {:<15.10f}'.format(e))
