import sys
sys.path.append('.')
from RCCSDT import RCCSDT

molecule mol {
  0 1
  O
  H 1 R
  H 1 R 2 A
  R = 1.0
  A = 104.5
  symmetry c1
}


set {
    BASIS         sto-3g
    REFERENCE     RHF
    SCF_TYPE      PK
    E_CONVERGENCE 12
    R_CONVERGENCE 12
}

ehf, wfn = energy('scf', return_wfn=True)
e = energy('ccsd')

X = RCCSDT(wfn, E_CONV=12, CC_CONV = 12, CC_MAXITER=100)

print('MRCC Full T: -75.019819521964')
print(e)

