import os
import sys
import numpy as np
from HTCCSD import HTCCSD

molecule mol {
    0 1
    He 
    He 1 2.0
    symmetry c1
}

set {
    BASIS         6-31g
    REFERENCE     RHF
    SCF_TYPE      PK
    SOSCF         True
    E_CONVERGENCE 12
    MAXITER       100
    MAX_ATTEMPTS  10
    GUESS         READ
    R_CONVERGENCE 10
}

X = HTCCSD(mol)

X.HTCCSD('aaaa', CC_CONV=12, MP2_GUESS=False, RELAX_T3T1=False)

print('CAS energy:   {:<5.10f}'.format(X.Ecas))
print('CCSD Energy:  {:<5.10f}'.format(energy('ccsd')))
