import os
import sys
import numpy as np
from HTCCSD import HTCCSD

molecule mol {
    unit bohr
    0 1
    N 
    N 1 2.074
    symmetry c1
}

set {
    BASIS         3-21g
    REFERENCE     RHF
    SCF_TYPE      PK
    SOSCF         True
    E_CONVERGENCE 8
    MAXITER       100
    MAX_ATTEMPTS  10
    GUESS         READ
}

X = HTCCSD(mol)

X.HTCCSD([4,5,6,7,8,9], CC_CONV=8)

print('CCSD Energy: {:<5.10f}'.format(energy('ccsd')))
