import sys
sys.path.append('../../../3_CCSDT')
sys.path.append('../../../2_CCSD')
from RCCSDT import RCCSDT
from RCCSD import RCCSD

molecule mol {
  0 1
  C       -4.0431729517      2.5597260362      0.0000003487
  H       -2.9337721641      2.5597251733     -0.0000015634
  H       -4.4129710787      3.2487329727      0.7869494539
  H       -4.4129737734      1.5337057469      0.2032239344
  H       -4.4129747942      2.8967402552     -0.9901704399
  symmetry c1
}


set {
    BASIS         6-31g
    REFERENCE     RHF
    SCF_TYPE      PK
    E_CONVERGENCE 12
    R_CONVERGENCE 12
}

ehf, wfn = energy('scf', return_wfn=True)
e = energy('ccsd')

X = RCCSDT(wfn, E_CONV=12, CC_CONV = 12, CC_MAXITER=100)

print(e)

